p = 25;
s = 12;
b = 6;
c = 10;
t = 5;
g = 7;
graph = [| 0,1,0,0,1,0,0,0,1,1,0,1
	| 0,1,0,0,0,0,1,1,1,0,1,1
	| 1,0,0,1,0,1,0,1,0,0,0,1
	| 1,0,0,0,0,1,0,0,0,0,0,1
	| 0,0,1,0,0,1,1,1,1,0,1,1
	| 0,1,1,0,0,0,1,1,0,0,0,1
	| 0,1,0,0,0,0,1,1,0,1,1,1
	| 0,0,0,1,1,1,0,0,1,1,1,0
	| 0,0,1,1,1,1,0,1,0,1,1,0
	| 0,0,0,1,1,1,0,0,0,1,1,1
	| 0,1,1,0,1,1,0,0,0,1,0,1
	| 0,0,0,0,1,0,0,0,0,1,1,0
	| 0,0,1,0,0,0,1,1,0,0,1,0
	| 0,1,0,1,1,0,0,0,1,1,1,1
	| 0,0,1,0,0,1,1,0,0,1,1,1
	| 1,1,1,0,0,1,0,1,0,0,1,0
	| 1,1,0,1,0,1,1,0,0,1,0,0
	| 0,0,0,0,1,0,0,0,0,1,1,0
	| 0,1,0,1,0,0,1,0,1,0,0,1
	| 1,1,0,1,1,1,0,1,0,1,1,1
	| 0,1,0,0,1,0,0,0,1,1,0,0
	| 1,1,1,0,0,0,1,0,1,1,1,0
	| 0,1,1,1,0,1,1,1,0,0,0,0
	| 1,1,1,1,1,0,0,1,1,1,1,1
	| 1,1,1,0,0,1,1,0,0,1,0,1
	|];
groups = [
	{23,16,25,10},{3,21,20},{4,12,2},{22,1,8,9},{5,15,18,19},{11,14,24},{6,13,7,17}
]